10	5
0	2	2	1
1	1	4
2	1	4
3	3	9	10	7
4	2	10	5
5	2	8	6
6	2	9	7
7	1	11
8	1	11
9	1	11
10	1	11
11	0
0	0	0	0	0	0	0
1	9	3	4	3	3	3
2	2	1	4	2	3	5
3	7	5	1	3	1	4
4	4	3	1	5	4	3
5	10	5	5	1	2	3
6	8	4	5	3	3	1
7	1	2	4	4	1	2
8	7	1	2	3	1	3
9	6	3	2	1	4	5
10	8	2	1	2	1	1
11	0	0	0	0	0	0
9	8	8	7	7
